p cnf 150 360
108 61 93 0
134 -128 124 0
-125 -144 43 0
36 79 141 0
112 134 91 0
50 117 -146 0
-72 66 -110 0
15 132 -135 0
-92 -23 -32 0
97 -20 -56 0
125 99 148 0
-74 68 -41 0
47 -76 -116 0
148 -78 -95 0
55 -59 60 0
150 -76 -47 0
-62 107 40 0
-126 110 86 0
144 -24 5 0
-81 134 -51 0
-53 141 -30 0
-98 149 -100 0
-29 -85 -108 0
26 -60 18 0
40 62 -148 0
-59 64 26 0
-130 90 113 0
-124 97 -65 0
-30 -78 2 0
-56 138 109 0
30 51 78 0
-142 -121 -76 0
-39 69 37 0
-12 108 46 0
-111 -124 -2 0
-23 27 6 0
66 -2 -52 0
-130 86 -73 0
14 -104 -128 0
37 -95 80 0
2 -65 97 0
122 -132 81 0
-21 -144 14 0
-109 -114 56 0
-59 66 128 0
-62 -61 112 0
63 117 108 0
-26 18 129 0
73 90 51 0
66 -101 -41 0
-35 71 -34 0
97 11 -82 0
-122 -47 -33 0
-32 73 -76 0
-20 -15 137 0
3 -81 -136 0
-95 74 62 0
73 -65 -76 0
-76 110 -66 0
-107 88 -11 0
-40 -87 -104 0
-110 27 80 0
41 -140 16 0
-47 112 -90 0
-6 87 23 0
-14 68 -16 0
-60 -145 78 0
-69 11 33 0
17 -99 -44 0
-96 -124 39 0
95 40 55 0
-138 -13 -136 0
25 -87 -57 0
148 -43 49 0
-136 -100 132 0
4 -129 -148 0
-122 -74 28 0
-124 -41 -99 0
41 -112 -20 0
34 -108 88 0
141 -4 -105 0
36 116 -109 0
-105 127 -125 0
108 -36 -71 0
-19 107 39 0
-6 -144 -40 0
-84 -49 99 0
-99 145 41 0
-32 33 -35 0
-43 107 -4 0
119 -8 66 0
58 -29 -26 0
-39 -145 -124 0
-101 -36 52 0
99 88 33 0
-48 -62 -124 0
102 92 -4 0
8 -37 -19 0
-75 11 -22 0
-3 -90 119 0
43 -31 -106 0
105 -133 -38 0
-101 103 57 0
-57 -20 105 0
146 44 -74 0
37 131 61 0
50 72 42 0
-102 25 -150 0
31 4 41 0
-91 7 -88 0
-77 -123 -90 0
-19 142 78 0
-60 -150 -23 0
76 134 -69 0
8 42 -30 0
-121 45 132 0
6 112 -22 0
-143 102 129 0
141 142 -34 0
-143 -130 120 0
128 -36 63 0
-115 -27 -106 0
125 -88 123 0
48 -26 -98 0
-49 -63 127 0
-145 41 -77 0
22 -109 -4 0
12 133 -57 0
-18 97 -77 0
-22 -7 -70 0
58 -39 125 0
-118 111 40 0
-89 -75 100 0
26 10 5 0
-68 -61 -138 0
47 -76 -16 0
52 132 -110 0
49 116 39 0
-81 75 39 0
-126 143 -1 0
101 117 20 0
-29 55 12 0
136 -13 -120 0
75 106 126 0
105 -144 -115 0
-96 74 -57 0
120 -57 -22 0
-117 62 108 0
45 6 -65 0
-19 30 -60 0
75 -120 -146 0
-11 26 -145 0
-69 149 -105 0
-93 -148 -103 0
-112 -40 -39 0
132 -36 93 0
-123 97 -66 0
-117 -104 -125 0
-130 -86 26 0
134 24 -131 0
48 49 127 0
149 23 -125 0
-106 137 124 0
39 66 102 0
71 73 -7 0
105 82 37 0
3 131 119 0
32 68 -146 0
44 -29 -87 0
114 108 -7 0
65 63 87 0
-31 -3 53 0
133 -113 -122 0
95 -3 -7 0
-69 -112 -90 0
-115 -43 117 0
67 11 -96 0
-118 147 137 0
128 -103 138 0
51 55 94 0
-38 100 71 0
-22 73 117 0
-25 66 -114 0
54 144 88 0
-68 148 -85 0
37 14 -63 0
124 -117 -51 0
33 89 131 0
133 75 -21 0
64 122 -11 0
-6 74 109 0
47 -33 124 0
91 -95 17 0
18 5 83 0
-50 121 125 0
105 -35 -54 0
-66 39 -3 0
-100 -49 -80 0
-93 -35 -132 0
-6 -12 -134 0
-90 -78 -21 0
-93 -50 135 0
130 28 -112 0
-103 53 -95 0
-41 -149 134 0
-44 -62 -91 0
81 -111 -79 0
22 -59 128 0
-71 35 -94 0
-16 116 -98 0
-40 -103 64 0
139 130 39 0
48 -141 -50 0
-7 123 142 0
-128 72 42 0
9 30 -8 0
-141 -47 -35 0
111 -127 69 0
148 -14 118 0
41 104 -14 0
2 14 -62 0
112 -63 68 0
53 -79 103 0
91 92 -85 0
112 14 -2 0
-121 -6 138 0
-101 45 142 0
-17 -143 -73 0
36 -72 110 0
106 120 -123 0
-2 144 55 0
-78 105 134 0
7 72 -100 0
105 52 80 0
-54 103 -85 0
43 -143 30 0
-133 117 111 0
53 -101 -27 0
-125 -62 -20 0
-59 61 42 0
24 -60 -123 0
120 135 -88 0
145 8 38 0
3 61 -107 0
94 84 149 0
120 28 -80 0
102 -29 -8 0
89 -16 -44 0
106 32 -100 0
52 28 -94 0
-66 -120 99 0
100 -25 -50 0
-20 71 -10 0
-18 28 -106 0
-110 -104 -22 0
1 -107 -111 0
29 52 -31 0
-26 -94 10 0
109 -13 48 0
99 11 -106 0
-86 136 119 0
-125 120 80 0
117 106 -52 0
-71 -132 108 0
-106 46 150 0
-136 -99 98 0
-49 115 43 0
-49 -134 -69 0
-25 -24 9 0
37 -66 53 0
-28 -27 -70 0
32 -36 -2 0
-47 -146 83 0
-7 -21 49 0
-132 140 59 0
-130 -41 43 0
74 -27 -81 0
-80 -81 -99 0
-148 -78 61 0
70 10 118 0
-6 29 135 0
-117 -101 4 0
-141 -110 146 0
-137 -144 113 0
-118 -105 142 0
-82 -116 101 0
-89 -70 60 0
-124 -3 60 0
18 20 125 0
59 102 39 0
63 100 34 0
100 -60 -71 0
85 -39 -11 0
114 142 2 0
-36 121 139 0
-70 68 114 0
-16 -7 -66 0
-47 -145 -63 0
-23 40 81 0
-34 -71 28 0
x -1 -3 -4 6 -7 8 -13 15 18 -19 -22 23 24 25 26 -28 -29 -30 33 34 -36 -37 38 39 -43 -44 -46 -47 -48 49 53 55 56 59 61 66 -68 69 71 -79 -81 82 -83 84 85 -87 88 -91 92 -95 97 -98 99 -100 103 -108 110 -111 112 113 114 -116 117 -118 119 -120 123 124 127 -128 130 -131 135 138 139 -140 -141 -142 -143 145 146 -147 -148 149 0
x 1 2 4 -5 6 7 -8 -10 19 -20 -21 23 -25 27 -29 -30 -31 35 -37 -40 41 42 -43 -45 46 48 49 -52 -53 55 -57 -58 -59 60 67 -68 69 71 -80 -82 85 86 -88 -89 -90 -91 92 94 -95 -97 -98 101 -103 104 105 106 109 -110 -111 112 -113 114 -117 124 125 -130 -131 133 135 -136 140 -142 143 145 -146 147 148 149 150 0
x -1 -2 4 -7 -8 -10 12 -13 14 -16 -19 -20 -24 -25 -27 29 30 32 35 -37 -39 40 -42 45 -46 50 52 53 54 58 -60 61 62 -64 -66 -67 70 71 72 -73 -74 75 77 78 80 -81 -82 -84 -85 86 -87 90 91 95 96 -99 101 107 -108 -111 -112 114 115 -116 -119 -122 123 -124 -131 132 135 -137 -138 140 -141 -144 -145 148 -149 0
x -1 -2 3 8 -10 -11 14 -16 20 21 22 23 24 27 -28 30 31 38 -41 43 -45 46 47 53 54 56 -57 61 -62 -64 -65 -67 -69 72 75 79 80 82 83 86 89 90 -91 92 93 94 98 -100 -104 105 -106 -112 113 114 -115 -116 -119 -121 123 126 127 129 131 132 -135 136 -137 139 -140 141 145 146 148 149 -150 0
x -2 -6 -9 -10 12 13 -14 15 -19 22 -23 -24 30 -32 -33 34 35 36 38 40 42 44 46 -47 -48 -49 51 -53 -54 56 -62 -63 65 67 78 81 -82 -83 -84 88 -89 90 -91 -92 -93 94 96 -99 -101 103 -105 -107 111 -113 115 120 -125 -126 129 -131 -133 137 138 140 -142 -147 0
x 1 -5 -6 -7 -8 -9 10 -11 -12 -13 14 -16 -22 -23 -24 -25 26 -27 29 30 -31 -33 -34 -35 41 44 -45 -46 -51 52 54 -57 60 62 -64 67 -68 -69 -70 73 -74 -76 79 -80 83 86 87 -90 -91 -93 -97 100 -101 104 -106 -107 110 -111 -113 115 -118 -122 123 -124 -127 -128 129 132 134 -136 -140 142 146 148 -149 0
x 1 2 5 -6 -11 12 16 -17 21 22 -23 -25 26 27 -28 31 32 -33 -36 39 42 -43 -44 46 -48 -51 -53 -54 -55 57 -60 -69 73 74 76 78 -79 -80 -83 84 -93 -101 104 -109 -110 112 114 -116 -117 -122 124 -127 -129 130 131 -135 136 137 -138 141 146 -147 149 150 0
x 1 -2 -3 8 -9 -10 -12 -17 -19 20 -21 23 25 -27 -28 31 32 33 -36 -38 39 41 -42 43 49 54 -55 57 -59 -60 61 -63 64 66 -72 -73 -74 -75 -78 79 -81 -82 -83 86 -87 88 -93 -94 -95 96 98 -100 -101 102 -103 105 109 111 115 117 -122 124 -127 -128 -131 132 134 136 137 -138 -139 140 -141 -143 -144 -147 -149 0
x 1 -4 6 -8 12 16 -17 -18 -22 -23 26 27 -28 29 -30 31 33 34 -37 40 -41 -43 -45 46 -48 -49 50 51 52 56 58 59 -63 -64 68 -69 70 -71 -73 74 -76 77 81 -82 85 -86 91 -92 -93 -94 -95 98 100 -105 107 110 -111 112 114 115 -116 -120 -122 -123 126 -127 129 -134 -135 -137 139 141 -142 -143 144 -145 -146 -147 -149 0
x 2 4 7 -8 -10 -11 15 -16 -20 -23 -25 -26 -32 -34 -35 36 -38 39 40 42 -43 -44 -45 -46 47 48 49 -51 -52 55 -59 60 -61 -63 66 -69 70 -71 -75 78 81 82 83 85 -86 -87 -88 -89 90 -92 93 -94 96 -98 100 101 102 -107 -112 114 116 -117 -119 121 122 -123 -126 128 -130 133 134 -139 -142 143 145 146 147 -148 -150 0
x -2 4 5 7 -9 11 12 -14 -16 21 22 23 -24 -25 28 -29 -30 -32 -34 35 37 -39 45 -50 51 52 -53 -54 57 -58 -59 61 66 -71 72 -74 -75 -79 -80 81 -82 83 85 -86 87 -88 91 94 97 104 105 -106 107 -108 -110 -112 -114 115 -117 118 119 -121 -125 -126 127 128 129 -133 136 137 -138 143 -144 145 147 150 0
x -1 3 -5 -8 -10 12 -13 -15 18 21 -23 -24 25 -26 -28 34 36 -39 -40 -41 43 44 -46 -48 -51 52 54 -56 57 64 -66 -71 -73 -77 79 -80 -83 86 89 -90 92 94 -95 97 99 101 -103 105 -106 107 109 -113 117 118 -126 -127 134 135 136 138 -139 -140 142 -143 148 0
x 3 4 8 9 10 14 -15 20 -22 23 25 26 27 -28 29 -30 33 -38 39 40 -41 -42 -43 45 47 49 -51 -57 -61 -62 -63 -67 68 -70 73 -77 78 81 84 85 -87 -88 89 95 -101 -102 103 -104 -105 -106 108 -109 -110 111 114 115 -117 -120 -129 -131 -132 -134 135 -136 140 142 -144 145 146 149 0
x 4 5 7 -8 10 11 -12 -14 -21 23 24 25 -26 27 33 -36 37 -40 -41 -42 -43 44 -45 50 -52 53 -55 60 -61 62 -63 -64 68 70 71 77 -78 79 -82 -87 89 90 -95 -99 101 -102 -104 -107 -110 -112 113 114 -116 117 119 -122 123 125 -126 -128 129 131 -133 134 -135 140 -144 147 -149 0
x -1 2 -5 -6 -8 -10 14 -17 -18 -20 -25 -26 27 28 33 35 -36 42 -43 44 47 -54 -58 59 -62 -66 67 -70 -71 -72 -74 76 77 81 82 -87 -89 90 92 93 96 -98 -101 103 -104 -105 111 116 119 120 -122 124 130 -131 132 133 -135 -137 -138 -140 143 -145 -147 -149 0
x 2 -6 -9 -11 12 -13 -14 15 -16 19 -23 25 -27 -29 30 -31 -32 33 -34 35 -36 37 -38 40 -41 -42 -44 46 -47 -48 -49 -53 61 63 -64 -65 66 67 -68 71 72 -75 76 84 87 -91 -92 94 -97 98 -103 105 -107 -108 109 -110 112 -113 114 -118 119 -127 -128 -129 130 132 134 135 136 137 -138 -140 146 -149 150 0
x 5 -6 -10 11 -17 19 -21 24 26 27 -29 32 -35 37 -38 -42 51 -52 53 57 59 60 -64 67 -68 69 70 -71 72 73 74 -77 -78 80 -81 -82 -86 -87 92 95 98 103 104 -106 -107 109 111 -112 -113 -114 116 -118 -119 120 -126 127 129 -132 133 -136 -137 138 141 143 147 -150 0
x 3 4 6 8 9 -13 15 17 19 -22 -23 24 -28 -32 34 35 37 38 39 40 41 42 43 50 53 55 58 60 -61 64 67 68 73 -76 78 79 -83 -84 -85 -88 92 -93 -94 95 -98 -100 -102 -104 106 -107 -113 -117 120 121 122 -125 -129 -131 -132 -133 134 136 -139 146 -147 0
x 2 3 -12 -13 15 -16 17 -18 20 21 -23 24 25 27 -29 32 34 -36 37 -45 -47 48 49 50 51 52 -57 -58 59 61 -63 -64 -65 -66 -67 -69 70 76 78 79 85 -89 -92 93 -95 -96 -99 -104 -108 114 -115 117 -119 -120 -123 -125 127 128 129 -131 -132 -135 -137 138 -141 143 144 145 149 150 0
x 3 4 6 -7 8 -10 -12 -13 14 -15 -16 -20 -21 27 -30 32 -35 36 37 38 39 43 44 46 50 -51 52 -54 -55 -57 58 -59 -61 -62 -63 -69 74 -78 79 80 -81 84 89 -90 -92 93 95 97 100 -104 107 109 110 111 -115 -116 -119 124 -127 132 -133 134 -135 137 -138 -139 -141 -142 143 144 145 -146 149 150 0
x 4 -5 6 7 -8 -10 11 -14 16 17 -18 -19 22 24 -25 -30 -31 32 36 -38 39 41 42 -46 49 51 -52 53 54 55 56 57 -59 60 -62 -63 65 66 67 73 79 82 -84 85 -87 88 -89 -90 -95 97 98 100 -101 102 103 -106 108 -109 -111 -112 119 -121 122 126 127 -128 130 -131 -135 -136 -137 -138 140 143 -146 -149 0
x -1 -2 4 -7 -10 11 -13 -14 -16 18 19 20 22 27 29 31 34 -35 -40 -41 44 45 -46 48 49 -51 -55 -56 -58 -59 61 -62 67 -68 70 -74 -79 80 -83 -85 86 87 89 -90 91 -95 96 98 -100 -101 -103 104 105 -108 -110 111 112 -113 -114 -115 -116 -119 121 122 123 126 -128 129 -130 132 134 -137 140 142 -145 -146 -147 -148 0
x -3 -5 -6 -7 8 -11 -12 -14 -16 18 19 -20 21 -22 24 25 -28 -33 -34 -37 42 43 44 45 -47 51 -53 55 -56 57 61 63 -66 -68 69 74 75 78 80 81 -83 84 -87 -90 95 99 103 -104 105 -106 -107 111 -112 114 120 122 -123 124 125 126 128 130 132 133 135 137 -144 146 -148 149 0
x 2 -4 -7 9 -10 -11 -12 16 -17 -19 -20 21 22 23 -24 -26 27 28 32 -34 35 -38 -39 -40 -47 48 -52 53 57 58 60 -61 -62 -63 64 -69 -71 72 -79 -80 81 82 -83 85 -88 90 91 -94 95 -100 -101 -102 -103 105 -107 -109 -113 114 116 118 -119 -120 -121 123 124 -126 127 130 -134 136 -137 138 140 -141 142 147 148 -150 0
x 2 -5 -6 7 -8 9 -12 -14 -16 -18 19 22 -24 -25 -28 -29 -30 32 34 -35 -42 43 44 -45 -46 47 -48 49 51 52 53 55 56 -59 -60 61 62 -63 64 66 68 69 71 72 74 -76 -79 -81 82 -84 -85 -88 92 -93 94 95 -97 98 -99 100 106 108 -109 -110 -112 118 119 -120 121 123 126 128 -134 135 136 -137 144 -146 -147 0
x 1 -4 6 8 11 13 15 -16 17 -18 -19 20 24 -26 -27 -30 -31 -33 35 36 -41 -42 -44 -45 46 -47 -50 -55 -56 -57 -59 -60 61 62 -64 65 66 68 69 -71 -72 73 83 85 86 -92 95 -96 99 -100 -102 -104 105 106 -107 -110 112 113 -114 -115 -116 118 -119 120 121 125 -126 127 128 131 132 134 138 141 143 146 0
x -3 4 6 7 9 12 13 20 21 22 24 26 -28 29 30 31 -36 -38 -39 -40 -41 -42 43 -44 45 49 -50 51 58 67 -69 -76 -77 80 -81 -82 83 -86 88 89 -92 93 -96 98 -99 -100 101 -102 104 -105 -111 -114 115 -116 117 118 -119 122 123 -124 125 -127 131 135 -136 137 -139 140 142 -145 150 0
x -2 -4 -6 7 -8 -12 14 15 -17 20 21 -24 -25 26 28 -29 -30 -32 -34 35 37 38 -41 -42 -43 44 45 -49 -52 53 -55 56 58 62 64 -66 -67 -69 -70 71 73 -74 77 -80 81 -82 -83 84 89 90 -92 -93 96 99 101 106 -107 -108 110 111 112 -116 122 -123 -124 125 -127 -128 130 131 -139 -140 142 -143 -145 -150 0
x 1 -3 4 -6 7 9 10 12 13 14 16 17 20 -21 22 23 -25 26 31 37 38 -41 42 43 45 -49 -51 52 -53 55 63 -64 -65 -66 -67 -68 71 -74 78 79 -86 93 95 -97 -98 -100 101 102 -103 -105 106 108 -110 111 112 -114 120 123 -124 126 128 131 -132 -133 -134 135 -137 -138 -141 143 -144 -146 -150 0
x -1 -2 3 6 10 -11 -14 16 18 19 -21 22 25 -26 27 -28 -30 31 33 -34 -35 39 -44 -47 49 -50 52 -55 -56 57 -58 61 -62 63 -64 -66 71 -75 76 -77 -79 -80 83 -85 -86 -87 90 -91 -93 -94 -95 -98 -100 102 -104 -105 108 -110 -112 -114 118 121 122 123 124 125 -127 128 132 -134 -135 -136 137 140 -142 -143 145 147 -148 -150 0
x 2 4 -5 6 7 9 -11 13 15 16 -17 20 -24 -30 -34 -35 -37 40 -51 -55 -56 -57 -59 60 61 -62 63 -64 -66 -67 68 69 75 77 78 80 -82 83 -84 -85 86 90 -91 92 -93 95 -96 98 -99 100 -103 106 108 -109 -110 -114 -116 118 122 124 -125 126 131 132 133 134 136 -138 144 145 0
x -1 7 10 11 14 15 16 -18 22 -23 -24 -25 -26 -27 28 -29 -30 -31 34 -36 -44 -45 -46 -49 55 57 58 -59 -64 67 -68 70 71 74 76 78 -80 81 -82 83 -85 86 87 -89 -90 -91 92 93 94 97 -99 -100 -101 -102 109 112 -113 115 116 -117 -120 -123 -126 -127 128 -129 132 -133 137 -138 143 -144 145 146 0
x 4 7 9 10 -11 12 13 15 -17 -22 -23 25 26 29 -31 -33 -35 38 39 -40 41 -43 -45 46 -48 -53 54 -58 59 -60 61 -62 -67 68 -69 -70 -74 -75 84 -85 88 90 -91 92 94 -96 -101 103 -104 105 106 107 108 109 110 111 -114 116 118 -124 126 -128 -132 -138 -139 140 -141 -143 144 146 -147 -148 149 0
x -3 -4 -8 9 -10 -11 13 -15 16 -17 18 -19 25 -31 -33 -35 38 -46 47 48 -51 52 -57 63 -65 66 68 -71 -73 74 77 -79 81 -82 83 -84 -85 -88 90 -91 -93 95 -97 -101 -102 -106 -108 -113 -115 116 -117 -118 125 -126 -128 134 -137 138 140 -141 -146 149 150 0
x -1 -2 4 5 7 9 -10 12 13 14 -15 16 -18 27 -31 32 33 35 -36 37 -38 -41 -43 -45 -48 50 -55 56 58 62 64 65 -71 -72 75 78 79 80 81 82 -83 -85 89 -91 -95 -96 97 -100 -106 -107 -110 111 -112 -113 -114 -115 -116 -117 118 119 122 -123 124 -130 133 -137 -140 -142 145 -146 148 -149 -150 0
x 1 -2 3 -7 8 -9 -10 -12 -15 -16 17 18 -20 -22 27 -30 -31 -32 -33 34 36 -37 39 -41 44 46 47 48 -49 50 -51 54 -62 -63 -64 66 68 -70 -72 -73 -75 76 -78 79 -81 -82 -84 -86 87 -88 89 -90 93 -94 95 -98 99 100 -102 103 104 105 106 110 113 -114 116 -120 122 -125 126 128 129 -130 135 -136 137 139 140 -147 -148 150 0
x 1 2 -4 -6 -8 9 10 -13 17 18 20 -23 27 30 -36 -37 39 -40 -42 45 46 47 -49 55 56 57 58 59 -62 -67 -68 -72 77 -78 79 82 83 -84 85 88 -90 91 -92 99 -101 102 104 106 -108 -109 -110 111 -114 -117 -118 120 -123 -126 127 128 130 132 133 134 -136 137 -139 140 141 145 -146 -150 0
x -4 5 8 9 10 -11 12 15 19 22 -25 -26 -28 29 -30 -31 -32 33 -34 35 42 -43 45 -46 48 -50 52 -54 -56 57 59 64 -66 69 -71 72 73 -74 76 78 -79 -80 81 82 -83 86 -89 -92 -93 -95 96 99 -103 -106 108 -109 111 -112 113 -118 119 -121 122 -127 -130 -135 -136 139 -142 -147 148 149 -150 0
x -1 3 7 10 -15 16 -18 -20 22 23 -25 27 -28 -30 31 -36 -37 38 39 41 43 -44 46 47 48 -50 51 53 -54 57 60 -61 63 -67 68 -69 -70 -71 -72 73 -74 75 -77 -80 -81 82 83 -84 87 -88 -89 91 -93 -95 96 -97 -98 99 -102 -103 105 106 -112 -114 -115 -118 -120 -121 -122 123 -126 -127 129 -130 136 -137 139 -140 -141 142 -144 -149 0
x -3 4 -6 -7 -8 -10 11 12 14 15 -16 18 21 23 -25 26 28 -30 32 -34 -36 -38 -39 -40 41 -43 46 -47 -51 53 -54 56 57 58 59 60 -61 65 -73 -74 -75 -78 -87 -89 92 -94 96 -100 101 103 106 -107 108 -109 110 112 -117 -118 119 121 127 128 130 -132 -134 136 138 139 -140 142 143 144 145 146 -147 -150 0
x 1 2 4 -5 -7 -8 9 -10 -12 18 21 -24 -28 -30 35 37 38 -41 -42 43 44 48 53 -55 -56 58 60 -61 -62 63 66 67 -71 72 -74 76 -79 -80 82 83 -84 86 -87 -89 91 92 -93 94 -96 -98 -101 102 -104 105 -107 109 111 -112 113 116 118 119 121 -124 126 -127 128 -130 -135 136 138 140 144 150 0
x 3 5 7 11 14 -15 -16 -21 -23 25 -26 -27 -31 -32 33 -34 -37 38 -39 -41 -42 -43 -45 47 51 -54 61 67 -68 -69 70 72 -74 -76 -77 -78 -79 -81 84 -85 -86 87 88 89 90 91 95 -98 100 -102 -104 105 106 111 -112 -113 -118 120 121 123 -125 127 -131 -138 140 145 146 -147 -148 149 0
x 1 3 4 -7 -8 -9 14 18 19 21 -23 25 -26 27 -30 -32 33 -35 -36 -37 -38 39 45 -48 49 -50 52 -56 -57 -58 -62 63 -65 68 70 71 74 -79 80 -84 85 91 -94 96 99 100 -101 -104 -106 108 -109 -112 -115 117 -120 -122 -124 -125 126 -127 -128 129 130 -131 132 133 -135 137 -138 -139 -142 -143 -146 -148 -150 0
x -3 -4 -5 6 -8 10 -14 -17 18 -19 -21 22 -23 29 30 31 35 -41 -42 43 44 46 49 50 51 52 -53 -54 -56 57 60 61 63 -64 67 -68 -69 70 -71 75 76 -77 85 86 87 -91 -93 94 95 96 98 -99 -100 -107 108 111 -112 -115 -116 -117 118 -120 -121 -122 -123 124 125 128 -129 131 -134 135 136 -138 -141 142 -143 -145 -146 -147 -148 0
x 6 -7 -8 10 -12 -14 -17 18 -19 -20 -21 22 -23 26 27 29 -30 33 34 35 36 -38 -39 -40 -41 42 43 45 -46 47 48 49 -50 51 53 54 -57 59 60 -61 62 66 -68 70 -71 -73 75 -76 -77 -78 84 85 89 91 -101 -104 107 -108 110 111 112 -114 -115 116 -117 118 119 120 121 122 124 -127 131 132 -133 -134 -135 -136 140 -143 144 146 147 148 -150 0
x -4 -6 10 13 -14 16 18 19 -22 -24 25 29 31 33 -37 -41 -43 44 46 -47 -48 50 51 -52 54 56 -57 -58 60 61 -63 -65 67 -68 -69 -70 -71 72 -73 75 -76 81 82 -83 -84 -87 88 -89 91 -92 -95 99 101 -102 104 -106 -108 109 110 -111 112 113 118 120 122 -126 -127 136 137 138 144 -149 -150 0
x 1 2 4 6 -9 -10 -12 -13 15 -16 17 18 25 26 27 -29 30 33 35 36 -37 -39 -41 43 -44 -46 51 -54 -59 -60 66 67 -68 -69 -71 72 74 75 76 -80 -82 84 86 -90 -91 93 -94 95 101 -103 -104 -107 108 -109 111 -112 -113 -116 -117 119 -120 122 123 -126 -127 -129 -131 137 -138 -140 -143 145 -146 -149 150 0
x 2 6 7 8 11 12 -14 15 18 19 23 -24 -26 32 -33 35 36 -41 -43 47 48 -49 50 53 -54 -55 -57 -60 -62 63 66 -67 68 -70 -73 75 76 -77 78 79 -81 86 87 -88 -90 91 97 -98 99 107 -110 -115 117 -119 -125 -126 -128 -129 131 -133 -134 135 136 138 -139 141 -142 -143 -146 -148 0
x 1 -2 -7 -8 9 -10 12 17 19 -24 25 -29 -31 35 -37 39 -40 43 -47 -52 53 -58 -61 -64 -66 -71 -73 -74 -76 -77 80 83 -84 -85 -86 -92 -95 -96 -97 98 -100 -101 -103 -104 -105 106 -107 108 109 -111 -112 -113 -114 -115 116 118 -119 -121 -122 -124 -127 128 130 135 138 -139 141 142 -143 147 149 -150 0
x 2 3 -5 -6 7 9 -14 15 -17 -20 -22 26 27 -29 31 32 37 38 -39 -41 -44 -45 -46 -50 53 -55 -60 -62 63 65 -66 67 68 -71 -74 -75 77 79 -82 84 87 91 -92 98 101 103 107 -108 111 112 120 121 122 -123 -128 130 -131 -132 133 134 135 -139 -141 -143 0
x 2 4 8 -11 13 14 17 18 -19 22 23 -25 26 28 -31 -35 37 38 41 43 44 -46 47 -48 -49 50 52 55 -57 -58 -59 -60 -61 63 -65 68 69 -75 77 79 80 81 82 -84 85 86 92 94 96 101 102 104 105 109 -110 -116 -117 123 124 -126 127 130 -133 -134 136 137 -138 139 -140 142 -144 145 146 0
x -1 2 7 8 -9 10 -11 12 13 -14 -15 -16 17 -18 -19 22 -23 -25 -26 -29 -30 31 -33 -37 41 -42 -44 45 -47 -48 51 -52 55 57 -60 62 -66 -68 71 -74 76 78 -86 87 88 -90 -91 -92 -94 95 -97 99 -100 101 102 103 105 106 107 -108 110 111 -112 -113 115 -117 119 120 -121 -123 -124 -127 -128 132 133 134 -135 140 -141 -142 -144 146 148 -149 -150 0
x -2 3 -5 -7 8 -11 15 16 17 -18 19 21 23 -24 25 -26 -27 -29 -31 33 34 38 -42 -43 44 -47 48 -49 51 52 53 -55 -57 60 -61 63 64 67 68 -69 -70 72 73 -77 81 83 85 -88 90 96 97 -98 101 -105 107 -109 111 113 -116 117 118 122 124 128 -131 132 135 -138 -140 142 144 147 -148 150 0
x 4 -5 -6 7 -8 -10 -14 -15 -16 -18 19 22 -23 24 -27 -28 30 -31 -33 37 38 -39 42 45 -48 55 60 65 66 68 -69 -70 73 -74 -75 76 -77 -79 80 -81 85 -90 -92 -93 -95 97 -98 99 103 -104 107 108 -112 -114 -115 -121 -123 -124 -125 -126 -127 -130 -131 132 -135 -138 -140 141 142 -143 -144 -145 -147 -148 -149 0
x 4 5 8 -16 18 -19 20 -21 22 23 -27 -30 -33 35 -37 -39 41 42 44 45 -47 -48 49 51 -53 55 -60 -61 -62 -63 65 66 -67 70 71 -72 73 77 78 80 83 84 -89 -91 93 -94 95 -96 -98 -100 -101 -103 -104 112 -114 115 116 -118 -119 -125 -126 130 133 134 135 -136 -139 143 -144 146 -149 0
x 1 -3 5 -6 -7 9 10 11 12 -13 -15 17 18 -19 21 -23 -24 -28 30 -32 -36 37 39 -42 -45 -47 48 52 -54 55 -57 -61 -65 68 -71 72 73 -77 -79 -81 -83 -84 85 -86 88 -89 -90 91 92 -93 -94 95 -96 97 100 102 103 -105 -107 110 111 -113 114 -117 -119 -120 122 123 124 125 126 127 -129 133 135 137 138 139 143 -144 -146 150 0
x -3 4 7 8 -9 12 -14 15 -16 17 -23 25 -27 28 -30 -31 32 -33 36 37 41 -42 -48 -52 53 -57 58 60 -63 66 -69 -72 75 -77 78 79 80 -81 82 85 -87 -88 -89 93 94 96 97 100 -103 105 106 107 -109 110 -111 -112 113 -114 115 -119 120 -128 -129 130 -135 -136 -137 -138 -140 143 145 146 147 149 150 0
x -1 5 -7 -9 -10 -13 -18 19 -20 23 25 -29 -31 32 34 35 36 37 38 -39 43 46 47 -49 -50 -52 -53 56 -58 60 -62 -63 65 66 -67 70 -71 73 75 76 -78 -79 -80 -81 82 83 87 89 93 -99 -102 -104 -105 -107 108 -109 111 113 -115 -116 117 118 -119 120 -122 -123 125 126 -128 -132 133 134 -136 137 -138 139 -141 142 146 -148 149 150 0
x -1 2 -3 4 -11 12 -14 16 17 19 -20 -23 24 28 -31 -32 33 35 -38 -39 -40 -42 44 45 49 -50 51 -52 -54 55 57 -58 59 61 -62 63 -64 65 -66 67 68 -69 70 73 75 78 79 81 82 -85 86 -87 -89 93 95 -100 103 -104 105 -106 -108 -109 -110 112 114 -117 -118 119 -120 -121 122 126 127 129 -131 -133 134 -137 139 -144 -146 149 0
x 1 -4 8 -11 -13 14 15 16 -17 -19 -23 -24 -25 -26 -27 -28 -29 -31 -36 -39 40 -41 -43 -44 46 49 50 -51 52 56 -59 71 72 -73 76 -80 81 -82 -83 88 89 92 -101 -102 -104 105 -107 -108 -113 114 -115 116 -117 -118 122 123 125 126 -130 134 -135 -136 137 139 -140 141 -142 144 148 -150 0
